(declare-const v0 Bool)
(declare-const v1 Bool)
(declare-const v2 Bool)
(declare-const v3 Bool)
(declare-const v4 Bool)
(assert (edge true (not v2)))
(assert (edge true (or (not v1) (not v4))))
(assert (edge (or v2 (not v3) (not v0)) true))
(assert (edge (not v2) (or v2 (not v3) (not v4))))
(assert (edge v4 (or v1 v3)))
(assert (not (edge (or v0 v4) (not v2))))